NAME : amz0062.1582788_79788.tour
COMMENT : Cost = 1582788_79788
COMMENT : Found by LKH-AMZ [Keld Helsgaun] Sun May 11 12:13:13 2025
COMMENT : TW viol.: 0 #: 0
TYPE : TOUR
DIMENSION : 72
TOUR_SECTION
68
40
26
58
27
4
47
46
32
19
56
22
72
11
16
7
43
49
25
31
9
5
65
12
59
38
57
2
6
37
23
10
51
52
18
41
62
14
44
54
36
20
66
63
8
21
50
45
35
61
64
17
1
24
33
60
69
71
30
55
39
34
67
42
28
15
53
13
3
48
29
70
-1
EOF
